sat
(:max-memory          18.17
 :memory              18.00
 :nlsat-conflicts     1
 :nlsat-learned-added 1
 :nlsat-propagations  12
 :nlsat-stages        5
 :num-allocs          6502
 :rlimit-count        3883
 :time                0.00
 :total-time          0.01)
